p cnf 230 238
c ind 113 114 115 116 117 118 119 120 0
c ind 121 122 123 124 125 126 127 128 129 130 0
c ind 131 132 133 134 135 136 137 138 139 140 0
c ind 141 142 143 144 145 146 147 148 149 150 0
c ind 151 152 153 154 155 156 157 158 159 160 0
c ind 161 162 163 164 165 166 167 168 169 170 0
c ind 171 172 173 174 175 176 177 178 179 180 0
c ind 181 182 183 184 185 186 187 188 189 190 0
c ind 191 192 193 194 195 196 197 198 199 200 0
c ind 201 202 203 204 205 206 207 208 209 210 0
c ind 211 212 213 214 215 216 217 218 219 220 0
c ind 221 222 223 224 225 226 227 228 229 230 0
c ind 0
72 0
-48 0
-1 -113 85 0
1 -113 -85 0
-1 -114 87 0
1 -114 -87 0
-2 -115 58 0
2 -115 -58 0
-3 -116 4 0
3 -116 -4 0
-3 -117 57 0
3 -117 -57 0
-3 -118 61 0
3 -118 -61 0
-3 -119 81 0
3 -119 -81 0
-3 -120 95 0
3 -120 -95 0
-3 -121 97 0
3 -121 -97 0
-3 -122 98 0
3 -122 -98 0
-3 -123 99 0
3 -123 -99 0
-3 -124 102 0
3 -124 -102 0
-3 -125 105 0
3 -125 -105 0
-4 -126 12 0
4 -126 -12 0
-4 -127 96 0
4 -127 -96 0
-5 -128 25 0
5 -128 -25 0
-5 -129 27 0
5 -129 -27 0
-5 -130 36 0
5 -130 -36 0
-5 -131 58 0
5 -131 -58 0
-5 -132 83 0
5 -132 -83 0
-6 -133 12 0
6 -133 -12 0
-6 -134 32 0
6 -134 -32 0
-6 -135 58 0
6 -135 -58 0
-6 -136 101 0
6 -136 -101 0
-7 -137 39 0
7 -137 -39 0
-7 -138 72 0
7 -138 -72 0
-8 -139 9 0
8 -139 -9 0
-8 -140 56 0
8 -140 -56 0
-9 -141 20 0
9 -141 -20 0
-9 -142 21 0
9 -142 -21 0
-10 -143 53 0
10 -143 -53 0
-11 -144 112 0
11 -144 -112 0
-12 -145 17 0
12 -145 -17 0
-12 -146 35 0
12 -146 -35 0
-12 -147 46 0
12 -147 -46 0
-12 -148 47 0
12 -148 -47 0
-12 -149 95 0
12 -149 -95 0
-13 -150 16 0
13 -150 -16 0
-14 -151 19 0
14 -151 -19 0
-15 -152 47 0
15 -152 -47 0
-15 -153 48 0
15 -153 -48 0
-16 -154 86 0
16 -154 -86 0
-17 -155 22 0
17 -155 -22 0
-17 -156 83 0
17 -156 -83 0
-18 -157 21 0
18 -157 -21 0
-18 -158 28 0
18 -158 -28 0
-18 -159 29 0
18 -159 -29 0
-19 -160 28 0
19 -160 -28 0
-19 -161 53 0
19 -161 -53 0
-20 -162 23 0
20 -162 -23 0
-20 -163 26 0
20 -163 -26 0
-21 -164 31 0
21 -164 -31 0
-23 -165 37 0
23 -165 -37 0
-24 -166 59 0
24 -166 -59 0
-24 -167 63 0
24 -167 -63 0
-27 -168 30 0
27 -168 -30 0
-28 -169 30 0
28 -169 -30 0
-32 -170 33 0
32 -170 -33 0
-34 -171 35 0
34 -171 -35 0
-36 -172 37 0
36 -172 -37 0
-36 -173 38 0
36 -173 -38 0
-39 -174 40 0
39 -174 -40 0
-40 -175 83 0
40 -175 -83 0
-41 -176 42 0
41 -176 -42 0
-41 -177 46 0
41 -177 -46 0
-42 -178 43 0
42 -178 -43 0
-43 -179 48 0
43 -179 -48 0
-44 -180 46 0
44 -180 -46 0
-45 -181 47 0
45 -181 -47 0
-48 -182 49 0
48 -182 -49 0
-48 -183 86 0
48 -183 -86 0
-49 -184 50 0
49 -184 -50 0
-50 -185 51 0
50 -185 -51 0
-50 -186 52 0
50 -186 -52 0
-53 -187 54 0
53 -187 -54 0
-54 -188 55 0
54 -188 -55 0
-57 -189 83 0
57 -189 -83 0
-60 -190 61 0
60 -190 -61 0
-60 -191 63 0
60 -191 -63 0
-61 -192 62 0
61 -192 -62 0
-63 -193 71 0
63 -193 -71 0
-64 -194 65 0
64 -194 -65 0
-64 -195 71 0
64 -195 -71 0
-65 -196 66 0
65 -196 -66 0
-65 -197 82 0
65 -197 -82 0
-66 -198 70 0
66 -198 -70 0
-67 -199 68 0
67 -199 -68 0
-67 -200 69 0
67 -200 -69 0
-67 -201 70 0
67 -201 -70 0
-68 -202 72 0
68 -202 -72 0
-72 -203 73 0
72 -203 -73 0
-73 -204 77 0
73 -204 -77 0
-74 -205 77 0
74 -205 -77 0
-75 -206 77 0
75 -206 -77 0
-76 -207 81 0
76 -207 -81 0
-78 -208 80 0
78 -208 -80 0
-79 -209 80 0
79 -209 -80 0
-79 -210 81 0
79 -210 -81 0
-83 -211 99 0
83 -211 -99 0
-84 -212 94 0
84 -212 -94 0
-85 -213 92 0
85 -213 -92 0
-87 -214 90 0
87 -214 -90 0
-87 -215 104 0
87 -215 -104 0
-88 -216 90 0
88 -216 -90 0
-89 -217 90 0
89 -217 -90 0
-91 -218 94 0
91 -218 -94 0
-92 -219 93 0
92 -219 -93 0
-92 -220 94 0
92 -220 -94 0
-99 -221 100 0
99 -221 -100 0
-103 -222 108 0
103 -222 -108 0
-104 -223 106 0
104 -223 -106 0
-104 -224 110 0
104 -224 -110 0
-105 -225 108 0
105 -225 -108 0
-106 -226 109 0
106 -226 -109 0
-107 -227 109 0
107 -227 -109 0
-108 -228 109 0
108 -228 -109 0
-110 -229 111 0
110 -229 -111 0
-111 -230 112 0
111 -230 -112 0
w 113 0.5
w 114 0.5
w 115 0.5
w 116 0.5
w 117 0.5
w 118 0.5
w 119 0.5
w 120 0.5
w 121 0.5
w 122 0.5
w 123 0.5
w 124 0.5
w 125 0.5
w 126 0.5
w 127 0.5
w 128 0.5625
w 129 0.5
w 130 0.5
w 131 0.5
w 132 0.5
w 133 0.5
w 134 0.5
w 135 0.5625
w 136 0.5
w 137 0.5
w 138 0.5
w 139 0.4375
w 140 0.5
w 141 0.5
w 142 0.5
w 143 0.5
w 144 0.5
w 145 0.5
w 146 0.5
w 147 0.5
w 148 0.5
w 149 0.5
w 150 0.5
w 151 0.5
w 152 0.5
w 153 0.5
w 154 0.5
w 155 0.5
w 156 0.5
w 157 0.5
w 158 0.5
w 159 0.4375
w 160 0.5
w 161 0.5
w 162 0.5
w 163 0.5
w 164 0.5625
w 165 0.5
w 166 0.5
w 167 0.5
w 168 0.5
w 169 0.5
w 170 0.5
w 171 0.5
w 172 0.5
w 173 0.5
w 174 0.5
w 175 0.5
w 176 0.5625
w 177 0.5
w 178 0.5
w 179 0.5
w 180 0.5
w 181 0.5
w 182 0.5
w 183 0.5
w 184 0.5
w 185 0.5
w 186 0.5
w 187 0.5
w 188 0.5
w 189 0.5
w 190 0.5
w 191 0.4375
w 192 0.5
w 193 0.5
w 194 0.5
w 195 0.5
w 196 0.5
w 197 0.5
w 198 0.5
w 199 0.5
w 200 0.5
w 201 0.5
w 202 0.5
w 203 0.5
w 204 0.5
w 205 0.5
w 206 0.5
w 207 0.5
w 208 0.5
w 209 0.5625
w 210 0.5625
w 211 0.5
w 212 0.5
w 213 0.5
w 214 0.5
w 215 0.5
w 216 0.5
w 217 0.5
w 218 0.5
w 219 0.5
w 220 0.5
w 221 0.5
w 222 0.5625
w 223 0.4375
w 224 0.5
w 225 0.5
w 226 0.5
w 227 0.5
w 228 0.5
w 229 0.4375
w 230 0.5
